3
30
56
40	31
1	1	7	16	
2	3	7	14	5	10	19	3	
3	1	12	3	
4	2	5	8	14	5	
5	2	8	13	20	4	
6	2	11	7	27	3	
7	3	6	12	6	9	14	8	
8	1	14	3	
9	3	5	10	12	6	28	3	
10	1	11	4	
11	2	4	14	9	4	
12	2	5	13	12	7	
13	2	20	3	13	3	
14	3	6	15	5	9	4	8	
15	2	7	7	31	2	
16	2	5	15	5	14	
17	3	7	16	10	7	17	2	
18	2	9	5	13	4	
19	3	7	9	16	8	12	6	
20	2	9	5	27	4	
21	1	6	7	
22	2	12	8	7	7	
23	1	8	11	
24	2	5	10	15	6	
25	2	16	3	27	2	
26	1	13	5	
27	1	7	8	
28	2	10	7	12	6	
29	1	5	11	
30	1	8	6	
